p edge 63 208
e 1 7
e 1 28
e 1 35
e 1 41
e 1 51
e 1 52
e 1 57
e 1 59
e 1 62
e 2 8
e 2 13
e 2 30
e 2 32
e 2 38
e 2 54
e 2 60
e 3 12
e 3 18
e 3 19
e 3 24
e 3 30
e 3 42
e 3 44
e 3 58
e 4 36
e 4 41
e 4 44
e 4 49
e 5 7
e 5 13
e 5 15
e 5 56
e 6 16
e 6 24
e 6 31
e 6 33
e 6 36
e 6 50
e 6 53
e 7 20
e 7 25
e 7 47
e 7 48
e 7 49
e 7 51
e 7 56
e 7 58
e 8 16
e 8 23
e 8 39
e 8 51
e 8 54
e 8 58
e 9 22
e 9 25
e 9 32
e 9 39
e 9 41
e 9 48
e 9 51
e 10 32
e 10 37
e 10 53
e 11 17
e 11 18
e 11 31
e 11 36
e 11 37
e 11 45
e 11 57
e 12 29
e 12 35
e 12 47
e 12 54
e 13 14
e 13 23
e 13 29
e 13 44
e 13 57
e 14 17
e 14 25
e 14 27
e 14 35
e 14 57
e 15 23
e 15 33
e 15 36
e 15 47
e 15 48
e 15 55
e 16 25
e 16 27
e 16 46
e 16 51
e 17 23
e 17 42
e 17 43
e 17 44
e 17 55
e 18 19
e 18 21
e 18 31
e 18 35
e 18 51
e 18 56
e 19 62
e 20 21
e 20 39
e 20 41
e 20 54
e 20 60
e 21 32
e 21 33
e 21 50
e 21 51
e 21 59
e 22 23
e 22 44
e 22 48
e 22 50
e 22 60
e 22 62
e 23 31
e 23 40
e 23 42
e 24 41
e 24 44
e 24 48
e 25 32
e 25 34
e 25 36
e 25 38
e 26 50
e 26 60
e 26 63
e 27 43
e 27 53
e 27 55
e 27 63
e 28 46
e 28 48
e 28 56
e 28 57
e 29 31
e 29 34
e 29 39
e 29 44
e 29 53
e 29 61
e 29 63
e 30 43
e 30 56
e 31 49
e 31 50
e 31 53
e 31 57
e 32 47
e 32 54
e 32 56
e 33 43
e 33 56
e 34 44
e 34 52
e 35 45
e 35 48
e 36 42
e 36 44
e 36 46
e 37 39
e 37 42
e 37 43
e 37 50
e 37 54
e 37 55
e 37 57
e 37 63
e 38 52
e 39 40
e 39 45
e 39 56
e 40 41
e 40 47
e 40 48
e 40 54
e 41 47
e 41 61
e 42 44
e 42 47
e 43 47
e 43 50
e 43 60
e 44 46
e 44 59
e 45 49
e 45 60
e 45 62
e 46 55
e 48 57
e 49 54
e 49 59
e 50 51
e 50 55
e 50 56
e 51 59
e 56 60
e 57 60
e 59 61
e 59 63
